% demand
num_movements = 17;
loading_factor = [1300, 2000, 1450, 1650, 1950, 850, 1900, 850, 800, 1150, 950, 950, 1900, 1600, 1600, 1300, 1100];
pickup_time = [0, 0, 0, 1, 4, 4, 4, 4, 4, 6, 6, 6, 7, 7, 9, 9, 9];
delivery_time = [1, 2, 2, 3, 6, 9, 7, 7, 6, 9, 11, 7, 9, 11, 11, 11, 11];

% transporter definition
total_capacity = 7000;
num_decks = 3;
capacity = [3000, 1000, 3000];

% ways out of decks
num_ways_out = 1;
paths_out = array3d(decks, ways_out, decks, [
% ways out of deck d1
2, 3, 0, 

% ways out of deck d2
3, 0, 0, 

% ways out of deck d3
0, 0, 0,	

]);

